c This is an instance of the exact track of PACE 2020 Challenge, see https://pacechallenge.org/2020/ 
c TYPE: biology 
c ORIGIN: www.genome.jp/kegg/ 
c DESCRIPTION: nan 
p tdp 223 265
107 151
107 147
107 106
107 108
107 152
151 150
208 209
208 207
209 210
209 204
134 135
134 132
134 3
135 136
81 82
81 5
82 5
82 83
104 105
104 103
105 108
105 106
121 122
121 120
122 123
17 20
17 18
17 27
17 58
17 16
17 29
17 9
17 19
17 30
17 28
20 28
20 21
20 29
20 202
20 27
20 19
20 23
59 60
59 58
60 61
63 193
63 64
63 65
63 67
63 192
63 175
193 64
193 62
132 133
132 131
132 174
132 3
114 115
114 119
114 113
114 116
114 118
114 117
115 113
18 19
18 194
75 76
75 74
76 77
94 95
94 93
95 96
110 111
110 109
67 175
67 68
67 176
67 65
175 116
175 64
32 33
32 28
32 10
33 34
23 24
23 21
24 25
1 6
1 2
6 52
6 54
6 5
83 84
84 154
64 86
68 69
116 117
116 65
78 79
78 77
92 93
92 91
142 143
142 141
143 144
71 72
71 70
206 207
206 205
136 137
42 43
42 201
28 27
28 10
28 29
51 54
51 53
51 50
51 52
54 52
25 26
26 30
26 204
26 27
103 102
34 35
119 118
5 7
181 182
181 15
181 180
15 180
15 183
15 11
15 16
35 36
36 37
27 30
27 29
128 223
128 127
90 91
90 89
195 221
195 196
195 197
221 194
30 31
30 29
165 169
165 66
165 166
169 170
162 163
162 161
163 164
210 204
210 211
53 55
53 87
3 153
3 12
3 177
3 9
3 2
3 4
166 167
167 168
52 50
12 13
74 31
50 56
50 85
50 171
50 2
56 57
38 39
38 44
38 37
38 120
39 201
39 40
147 222
147 148
186 190
186 65
186 187
190 191
11 10
7 8
131 130
218 219
218 98
47 49
47 48
47 46
49 48
98 99
98 97
99 100
161 160
129 130
129 9
159 160
159 158
177 179
177 178
179 178
10 9
212 213
212 211
13 14
187 188
188 189
21 22
9 138
9 58
149 150
149 148
80 198
80 57
198 140
65 73
65 66
139 184
139 138
139 140
66 127
66 126
127 126
171 173
171 172
173 172
61 62
57 185
123 124
22 214
22 216
214 215
145 146
145 144
96 97
87 88
88 89
70 69
97 112
202 203
40 41
215 216
216 217
155 156
155 31
156 157
109 220
109 100
138 199
140 141
44 45
45 46
101 102
101 100
199 200
2 4
124 125
158 157
